; benchmark generated from python API
(set-info :status unknown)
(declare-datatypes ((IntState 0)) (((Mk1 (val1 Int)) (Mk2 (val2 Int)))))
 (declare-fun c_main_~k~6 () Int)
(declare-fun c_main_~j~6 () Int)
(declare-fun c_main_~i~6 () Int)
(assert
 (let (($x82 (exists ((main_~i~6_st IntState) (val!129 Int) )(let ((?x56 (val2 main_~i~6_st)))
 (let (($x154 (<= ?x56 4)))
 (let (($x65 (and (<= c_main_~j~6 (+ (* 2 ?x56) 1)) $x154 (<= ?x56 c_main_~k~6))))
 (let (($x52 (not (= main_~i~6_st (Mk1 val!129)))))
 (and $x52 $x65))))))
 ))
 (let (($x174 (<= c_main_~i~6 3)))
 (let (($x77 (<= c_main_~i~6 2)))
 (let (($x165 (<= c_main_~i~6 4)))
 (let (($x105 (<= c_main_~j~6 (+ (* 2 c_main_~i~6) 1))))
 (let (($x42 (exists ((v_nnf_78 Int) )(let (($x91 (<= v_nnf_78 4)))
 (let (($x102 (<= c_main_~j~6 (+ (* 2 v_nnf_78) 1))))
 (and (<= (+ v_nnf_78 2) c_main_~k~6) $x102 $x91))))
 ))
 (let ((?x162 (* 2 c_main_~i~6)))
 (let (($x100 (<= c_main_~j~6 ?x162)))
 (and (and $x77 $x100 $x165 $x174 $x42) (not (and $x105 $x165 $x77 $x174 $x82))))))))))))
(check-sat)
